(set-logic QF_S)
(declare-fun var0 () Int)
(declare-fun var1 () Int)
(declare-fun var2 () String)
(declare-fun var3 () String)
(declare-fun var4 () String)
(declare-fun var5 () String)
(declare-fun var6 () Int)
(declare-fun var7 () Int)
(assert (str.suffixof (str.at (str.substr "dlY)" var0 var1) (str.to.int var2)) (str.replace var3 var4 var5)))
(assert (str.in.re var2 re.allchar))
(assert (>= (str.indexof var4 var5 194) (str.indexof var2 var5 52)))
(assert (str.in.re (str.replace (str.at "a0)rH@24v" var6) (str.replace var5 var5 var5) (str.replace var3 var4 var2)) (re.* re.allchar)))
(check-sat)